&FORCE_EVAL
  &DFT
    CHARGE 1
    MULTIPLICITY 1
    &QS
      METHOD DFTB
      &DFTB
        DIAGONAL_DFTB3
        DISPERSION
        HB_SR_GAMMA
        &PARAMETER
          PARAM_FILE_PATH 3ob-3-1
          PARAM_FILE_NAME scc_parameter
          HB_SR_PARAM 4.0
        &END PARAMETER
      &END DFTB
      EXTRAPOLATION ASPC
      EXTRAPOLATION_ORDER 3
    &END QS
    &SCF
      MAX_SCF 200
      EPS_SCF 1.0E-7
      SCF_GUESS ATOMIC
      &MIXING
      &END
      &PRINT
        &RESTART OFF
        &END RESTART
      &END PRINT
    &END SCF
    &POISSON
      PERIODIC NONE
      POISSON_SOLVER ANALYTIC
    &END POISSON
    &PRINT
      &MULLIKEN
        FILENAME charge
        &EACH
          MD 1
        &END EACH
      &END MULLIKEN
      &MOMENTS
        PERIODIC FALSE
        REFERENCE COM
        &EACH
          MD 1
        &END EACH
      &END MOMENTS
    &END PRINT
  &END DFT
&END FORCE_EVAL
